certificates/rado_a20_c16_N109.cnf
c Rad2 upper bound instance: x1 + 20*x2 - x3 = 16, interval [1,109]
p cnf 109 660
1 5 0
-1 -5 0
1 2 25 0
-1 -2 -25 0
1 3 45 0
-1 -3 -45 0
1 4 65 0
-1 -4 -65 0
1 5 85 0
-1 -5 -85 0
1 6 105 0
-1 -6 -105 0
1 2 6 0
-1 -2 -6 0
2 26 0
-2 -26 0
2 3 46 0
-2 -3 -46 0
2 4 66 0
-2 -4 -66 0
2 5 86 0
-2 -5 -86 0
2 6 106 0
-2 -6 -106 0
1 3 7 0
-1 -3 -7 0
2 3 27 0
-2 -3 -27 0
3 47 0
-3 -47 0
3 4 67 0
-3 -4 -67 0
3 5 87 0
-3 -5 -87 0
3 6 107 0
-3 -6 -107 0
1 4 8 0
-1 -4 -8 0
2 4 28 0
-2 -4 -28 0
3 4 48 0
-3 -4 -48 0
4 68 0
-4 -68 0
4 5 88 0
-4 -5 -88 0
4 6 108 0
-4 -6 -108 0
1 5 9 0
-1 -5 -9 0
2 5 29 0
-2 -5 -29 0
3 5 49 0
-3 -5 -49 0
4 5 69 0
-4 -5 -69 0
5 89 0
-5 -89 0
5 6 109 0
-5 -6 -109 0
1 6 10 0
-1 -6 -10 0
2 6 30 0
-2 -6 -30 0
3 6 50 0
-3 -6 -50 0
4 6 70 0
-4 -6 -70 0
5 6 90 0
-5 -6 -90 0
1 7 11 0
-1 -7 -11 0
2 7 31 0
-2 -7 -31 0
3 7 51 0
-3 -7 -51 0
4 7 71 0
-4 -7 -71 0
5 7 91 0
-5 -7 -91 0
1 8 12 0
-1 -8 -12 0
2 8 32 0
-2 -8 -32 0
3 8 52 0
-3 -8 -52 0
4 8 72 0
-4 -8 -72 0
5 8 92 0
-5 -8 -92 0
1 9 13 0
-1 -9 -13 0
2 9 33 0
-2 -9 -33 0
3 9 53 0
-3 -9 -53 0
4 9 73 0
-4 -9 -73 0
5 9 93 0
-5 -9 -93 0
1 10 14 0
-1 -10 -14 0
2 10 34 0
-2 -10 -34 0
3 10 54 0
-3 -10 -54 0
4 10 74 0
-4 -10 -74 0
5 10 94 0
-5 -10 -94 0
1 11 15 0
-1 -11 -15 0
2 11 35 0
-2 -11 -35 0
3 11 55 0
-3 -11 -55 0
4 11 75 0
-4 -11 -75 0
5 11 95 0
-5 -11 -95 0
1 12 16 0
-1 -12 -16 0
2 12 36 0
-2 -12 -36 0
3 12 56 0
-3 -12 -56 0
4 12 76 0
-4 -12 -76 0
5 12 96 0
-5 -12 -96 0
1 13 17 0
-1 -13 -17 0
2 13 37 0
-2 -13 -37 0
3 13 57 0
-3 -13 -57 0
4 13 77 0
-4 -13 -77 0
5 13 97 0
-5 -13 -97 0
1 14 18 0
-1 -14 -18 0
2 14 38 0
-2 -14 -38 0
3 14 58 0
-3 -14 -58 0
4 14 78 0
-4 -14 -78 0
5 14 98 0
-5 -14 -98 0
1 15 19 0
-1 -15 -19 0
2 15 39 0
-2 -15 -39 0
3 15 59 0
-3 -15 -59 0
4 15 79 0
-4 -15 -79 0
5 15 99 0
-5 -15 -99 0
1 16 20 0
-1 -16 -20 0
2 16 40 0
-2 -16 -40 0
3 16 60 0
-3 -16 -60 0
4 16 80 0
-4 -16 -80 0
5 16 100 0
-5 -16 -100 0
1 17 21 0
-1 -17 -21 0
2 17 41 0
-2 -17 -41 0
3 17 61 0
-3 -17 -61 0
4 17 81 0
-4 -17 -81 0
5 17 101 0
-5 -17 -101 0
1 18 22 0
-1 -18 -22 0
2 18 42 0
-2 -18 -42 0
3 18 62 0
-3 -18 -62 0
4 18 82 0
-4 -18 -82 0
5 18 102 0
-5 -18 -102 0
1 19 23 0
-1 -19 -23 0
2 19 43 0
-2 -19 -43 0
3 19 63 0
-3 -19 -63 0
4 19 83 0
-4 -19 -83 0
5 19 103 0
-5 -19 -103 0
1 20 24 0
-1 -20 -24 0
2 20 44 0
-2 -20 -44 0
3 20 64 0
-3 -20 -64 0
4 20 84 0
-4 -20 -84 0
5 20 104 0
-5 -20 -104 0
1 21 25 0
-1 -21 -25 0
2 21 45 0
-2 -21 -45 0
3 21 65 0
-3 -21 -65 0
4 21 85 0
-4 -21 -85 0
5 21 105 0
-5 -21 -105 0
1 22 26 0
-1 -22 -26 0
2 22 46 0
-2 -22 -46 0
3 22 66 0
-3 -22 -66 0
4 22 86 0
-4 -22 -86 0
5 22 106 0
-5 -22 -106 0
1 23 27 0
-1 -23 -27 0
2 23 47 0
-2 -23 -47 0
3 23 67 0
-3 -23 -67 0
4 23 87 0
-4 -23 -87 0
5 23 107 0
-5 -23 -107 0
1 24 28 0
-1 -24 -28 0
2 24 48 0
-2 -24 -48 0
3 24 68 0
-3 -24 -68 0
4 24 88 0
-4 -24 -88 0
5 24 108 0
-5 -24 -108 0
1 25 29 0
-1 -25 -29 0
2 25 49 0
-2 -25 -49 0
3 25 69 0
-3 -25 -69 0
4 25 89 0
-4 -25 -89 0
5 25 109 0
-5 -25 -109 0
1 26 30 0
-1 -26 -30 0
2 26 50 0
-2 -26 -50 0
3 26 70 0
-3 -26 -70 0
4 26 90 0
-4 -26 -90 0
1 27 31 0
-1 -27 -31 0
2 27 51 0
-2 -27 -51 0
3 27 71 0
-3 -27 -71 0
4 27 91 0
-4 -27 -91 0
1 28 32 0
-1 -28 -32 0
2 28 52 0
-2 -28 -52 0
3 28 72 0
-3 -28 -72 0
4 28 92 0
-4 -28 -92 0
1 29 33 0
-1 -29 -33 0
2 29 53 0
-2 -29 -53 0
3 29 73 0
-3 -29 -73 0
4 29 93 0
-4 -29 -93 0
1 30 34 0
-1 -30 -34 0
2 30 54 0
-2 -30 -54 0
3 30 74 0
-3 -30 -74 0
4 30 94 0
-4 -30 -94 0
1 31 35 0
-1 -31 -35 0
2 31 55 0
-2 -31 -55 0
3 31 75 0
-3 -31 -75 0
4 31 95 0
-4 -31 -95 0
1 32 36 0
-1 -32 -36 0
2 32 56 0
-2 -32 -56 0
3 32 76 0
-3 -32 -76 0
4 32 96 0
-4 -32 -96 0
1 33 37 0
-1 -33 -37 0
2 33 57 0
-2 -33 -57 0
3 33 77 0
-3 -33 -77 0
4 33 97 0
-4 -33 -97 0
1 34 38 0
-1 -34 -38 0
2 34 58 0
-2 -34 -58 0
3 34 78 0
-3 -34 -78 0
4 34 98 0
-4 -34 -98 0
1 35 39 0
-1 -35 -39 0
2 35 59 0
-2 -35 -59 0
3 35 79 0
-3 -35 -79 0
4 35 99 0
-4 -35 -99 0
1 36 40 0
-1 -36 -40 0
2 36 60 0
-2 -36 -60 0
3 36 80 0
-3 -36 -80 0
4 36 100 0
-4 -36 -100 0
1 37 41 0
-1 -37 -41 0
2 37 61 0
-2 -37 -61 0
3 37 81 0
-3 -37 -81 0
4 37 101 0
-4 -37 -101 0
1 38 42 0
-1 -38 -42 0
2 38 62 0
-2 -38 -62 0
3 38 82 0
-3 -38 -82 0
4 38 102 0
-4 -38 -102 0
1 39 43 0
-1 -39 -43 0
2 39 63 0
-2 -39 -63 0
3 39 83 0
-3 -39 -83 0
4 39 103 0
-4 -39 -103 0
1 40 44 0
-1 -40 -44 0
2 40 64 0
-2 -40 -64 0
3 40 84 0
-3 -40 -84 0
4 40 104 0
-4 -40 -104 0
1 41 45 0
-1 -41 -45 0
2 41 65 0
-2 -41 -65 0
3 41 85 0
-3 -41 -85 0
4 41 105 0
-4 -41 -105 0
1 42 46 0
-1 -42 -46 0
2 42 66 0
-2 -42 -66 0
3 42 86 0
-3 -42 -86 0
4 42 106 0
-4 -42 -106 0
1 43 47 0
-1 -43 -47 0
2 43 67 0
-2 -43 -67 0
3 43 87 0
-3 -43 -87 0
4 43 107 0
-4 -43 -107 0
1 44 48 0
-1 -44 -48 0
2 44 68 0
-2 -44 -68 0
3 44 88 0
-3 -44 -88 0
4 44 108 0
-4 -44 -108 0
1 45 49 0
-1 -45 -49 0
2 45 69 0
-2 -45 -69 0
3 45 89 0
-3 -45 -89 0
4 45 109 0
-4 -45 -109 0
1 46 50 0
-1 -46 -50 0
2 46 70 0
-2 -46 -70 0
3 46 90 0
-3 -46 -90 0
1 47 51 0
-1 -47 -51 0
2 47 71 0
-2 -47 -71 0
3 47 91 0
-3 -47 -91 0
1 48 52 0
-1 -48 -52 0
2 48 72 0
-2 -48 -72 0
3 48 92 0
-3 -48 -92 0
1 49 53 0
-1 -49 -53 0
2 49 73 0
-2 -49 -73 0
3 49 93 0
-3 -49 -93 0
1 50 54 0
-1 -50 -54 0
2 50 74 0
-2 -50 -74 0
3 50 94 0
-3 -50 -94 0
1 51 55 0
-1 -51 -55 0
2 51 75 0
-2 -51 -75 0
3 51 95 0
-3 -51 -95 0
1 52 56 0
-1 -52 -56 0
2 52 76 0
-2 -52 -76 0
3 52 96 0
-3 -52 -96 0
1 53 57 0
-1 -53 -57 0
2 53 77 0
-2 -53 -77 0
3 53 97 0
-3 -53 -97 0
1 54 58 0
-1 -54 -58 0
2 54 78 0
-2 -54 -78 0
3 54 98 0
-3 -54 -98 0
1 55 59 0
-1 -55 -59 0
2 55 79 0
-2 -55 -79 0
3 55 99 0
-3 -55 -99 0
1 56 60 0
-1 -56 -60 0
2 56 80 0
-2 -56 -80 0
3 56 100 0
-3 -56 -100 0
1 57 61 0
-1 -57 -61 0
2 57 81 0
-2 -57 -81 0
3 57 101 0
-3 -57 -101 0
1 58 62 0
-1 -58 -62 0
2 58 82 0
-2 -58 -82 0
3 58 102 0
-3 -58 -102 0
1 59 63 0
-1 -59 -63 0
2 59 83 0
-2 -59 -83 0
3 59 103 0
-3 -59 -103 0
1 60 64 0
-1 -60 -64 0
2 60 84 0
-2 -60 -84 0
3 60 104 0
-3 -60 -104 0
1 61 65 0
-1 -61 -65 0
2 61 85 0
-2 -61 -85 0
3 61 105 0
-3 -61 -105 0
1 62 66 0
-1 -62 -66 0
2 62 86 0
-2 -62 -86 0
3 62 106 0
-3 -62 -106 0
1 63 67 0
-1 -63 -67 0
2 63 87 0
-2 -63 -87 0
3 63 107 0
-3 -63 -107 0
1 64 68 0
-1 -64 -68 0
2 64 88 0
-2 -64 -88 0
3 64 108 0
-3 -64 -108 0
1 65 69 0
-1 -65 -69 0
2 65 89 0
-2 -65 -89 0
3 65 109 0
-3 -65 -109 0
1 66 70 0
-1 -66 -70 0
2 66 90 0
-2 -66 -90 0
1 67 71 0
-1 -67 -71 0
2 67 91 0
-2 -67 -91 0
1 68 72 0
-1 -68 -72 0
2 68 92 0
-2 -68 -92 0
1 69 73 0
-1 -69 -73 0
2 69 93 0
-2 -69 -93 0
1 70 74 0
-1 -70 -74 0
2 70 94 0
-2 -70 -94 0
1 71 75 0
-1 -71 -75 0
2 71 95 0
-2 -71 -95 0
1 72 76 0
-1 -72 -76 0
2 72 96 0
-2 -72 -96 0
1 73 77 0
-1 -73 -77 0
2 73 97 0
-2 -73 -97 0
1 74 78 0
-1 -74 -78 0
2 74 98 0
-2 -74 -98 0
1 75 79 0
-1 -75 -79 0
2 75 99 0
-2 -75 -99 0
1 76 80 0
-1 -76 -80 0
2 76 100 0
-2 -76 -100 0
1 77 81 0
-1 -77 -81 0
2 77 101 0
-2 -77 -101 0
1 78 82 0
-1 -78 -82 0
2 78 102 0
-2 -78 -102 0
1 79 83 0
-1 -79 -83 0
2 79 103 0
-2 -79 -103 0
1 80 84 0
-1 -80 -84 0
2 80 104 0
-2 -80 -104 0
1 81 85 0
-1 -81 -85 0
2 81 105 0
-2 -81 -105 0
1 82 86 0
-1 -82 -86 0
2 82 106 0
-2 -82 -106 0
1 83 87 0
-1 -83 -87 0
2 83 107 0
-2 -83 -107 0
1 84 88 0
-1 -84 -88 0
2 84 108 0
-2 -84 -108 0
1 85 89 0
-1 -85 -89 0
2 85 109 0
-2 -85 -109 0
1 86 90 0
-1 -86 -90 0
1 87 91 0
-1 -87 -91 0
1 88 92 0
-1 -88 -92 0
1 89 93 0
-1 -89 -93 0
1 90 94 0
-1 -90 -94 0
1 91 95 0
-1 -91 -95 0
1 92 96 0
-1 -92 -96 0
1 93 97 0
-1 -93 -97 0
1 94 98 0
-1 -94 -98 0
1 95 99 0
-1 -95 -99 0
1 96 100 0
-1 -96 -100 0
1 97 101 0
-1 -97 -101 0
1 98 102 0
-1 -98 -102 0
1 99 103 0
-1 -99 -103 0
1 100 104 0
-1 -100 -104 0
1 101 105 0
-1 -101 -105 0
1 102 106 0
-1 -102 -106 0
1 103 107 0
-1 -103 -107 0
1 104 108 0
-1 -104 -108 0
1 105 109 0
-1 -105 -109 0
