certificates/rado_a20_c16_N109.drat
-105 -109 0
d -105 -1 -109 0
21 25 105 0
-5 -109 0
-109 0
105 0
5 0
-1 0
-89 0
-21 0
93 0
85 0
25 0
17 0
-9 0
-101 0
13 0
97 0
0
